# Objective value = 4881.51
I_0_0 781
I_0_1 8.1199999999999943e+02
I_0_2 8.4299999999999852e+02
I_0_3 7.8100000000000057e+02
I_0_4 8.1000000000000023e+02
I_0_5 1.0219999999999997e+03
I_0_6 1.2920000000000002e+03
I_1_0 62
I_1_1 31
I_1_2 0
I_1_3 62
I_1_4 62
I_1_5 3.1000000000001407e+01
I_1_6 1.7763568394002505e-15
I_2_0 166
I_2_1 1.6600000000000009e+02
I_2_2 166
I_2_3 166
I_2_4 166
I_2_5 8.2999999999999659e+01
I_2_6 -3.4194869158454821e-13
I_3_0 100
I_3_1 1.0000000000000054e+02
I_3_2 100
I_3_3 9.9999999999999517e+01
I_3_4 1.0000000000000001e+02
I_3_5 49.9999999999997
I_3_6 1.6120438317557273e-13
I_4_0 154
I_4_1 154
I_4_2 154
I_4_3 154
I_4_4 1.5399999999999969e+02
I_4_5 7.6999999999999673e+01
I_4_6 0
I_5_0 29
I_5_1 2.8999999999999947e+01
I_5_2 2.9000000000001481e+01
I_5_3 2.8999999999999925e+01
I_5_4 9.7699626167013776e-14
I_5_5 28.9999999999999
I_5_6 9.6367358537463588e-14
q_1_0_0 0
q_1_0_1 0
q_1_0_2 93
q_1_0_3 31
q_1_0_4 1.4139800441625994e-12
q_1_0_5 -1.4139800441625994e-12
q_1_1_0 0
q_1_1_1 0
q_1_1_2 0
q_1_1_3 0
q_1_1_4 0
q_1_1_5 0
q_1_2_0 0
q_1_2_1 0
q_1_2_2 0
q_1_2_3 0
q_1_2_4 0
q_1_2_5 0
q_2_0_0 8.3000000000000057e+01
q_2_0_1 8.2999999999999943e+01
q_2_0_2 0
q_2_0_3 83
q_2_0_4 -3.4106051316484809e-13
q_2_0_5 0
q_2_1_0 0
q_2_1_1 0
q_2_1_2 83
q_2_1_3 0
q_2_1_4 0
q_2_1_5 0
q_2_2_0 0
q_2_2_1 0
q_2_2_2 0
q_2_2_3 0
q_2_2_4 0
q_2_2_5 0
q_3_0_0 0
q_3_0_1 0
q_3_0_2 0
q_3_0_3 3.5527136788005009e-15
q_3_0_4 1.5010215292932116e-13
q_3_0_5 2.3092638912203256e-13
q_3_1_0 5.0000000000000533e+01
q_3_1_1 4.9999999999999453e+01
q_3_1_2 0
q_3_1_3 5.0000000000000483e+01
q_3_1_4 -4.4941828036826337e-13
q_3_1_5 2.2071233729548112e-13
q_3_2_0 0
q_3_2_1 0
q_3_2_2 4.9999999999999531e+01
q_3_2_3 7.9936057773011271e-15
q_3_2_4 0
q_3_2_5 0
q_4_0_0 0
q_4_0_1 0
q_4_0_2 0
q_4_0_3 0
q_4_0_4 0
q_4_0_5 -1.1990408665951691e-14
q_4_1_0 77
q_4_1_1 77
q_4_1_2 0
q_4_1_3 7.6999999999999687e+01
q_4_1_4 0
q_4_1_5 0
q_4_2_0 0
q_4_2_1 0
q_4_2_2 77
q_4_2_3 -7.9936057773011271e-15
q_4_2_4 0
q_4_2_5 3.33510996597397e-13
q_5_0_0 29
q_5_0_1 2.9000000000001535e+01
q_5_0_2 0
q_5_0_3 1.7408297026122455e-13
q_5_0_4 58
q_5_0_5 9.9475983006414026e-14
q_5_1_0 0
q_5_1_1 0
q_5_1_2 2.8999999999998444e+01
q_5_1_3 0
q_5_1_4 -1.9451107391432743e-13
q_5_1_5 0
q_5_2_0 0
q_5_2_1 0
q_5_2_2 0
q_5_2_3 0
q_5_2_4 0
q_5_2_5 9.4813046302988369e-14
y_0_0_0 1
y_0_0_1 1
y_0_0_2 1
y_0_0_3 1
y_0_0_4 9.9999999999999645e-01
y_0_0_5 3.3306690738754696e-15
y_0_1_0 1
y_0_1_1 1
y_0_1_2 1
y_0_1_3 1
y_0_1_4 0
y_0_1_5 1.6341095143701523e-15
y_0_2_0 0
y_0_2_1 -6.4392935428259079e-15
y_0_2_2 9.9999999999999989e-01
y_0_2_3 0
y_0_2_4 0
y_0_2_5 3.1641356201816961e-15
y_1_0_0 0
y_1_0_1 0
y_1_0_2 1
y_1_0_3 1
y_1_0_4 2.2759572004815709e-14
y_1_0_5 -2.2759572004815709e-14
y_1_1_0 0
y_1_1_1 0
y_1_1_2 0
y_1_1_3 0
y_1_1_4 0
y_1_1_5 0
y_1_2_0 0
y_1_2_1 0
y_1_2_2 0
y_1_2_3 0
y_1_2_4 0
y_1_2_5 0
y_2_0_0 1.0000000000000007e+00
y_2_0_1 1
y_2_0_2 0
y_2_0_3 1
y_2_0_4 0
y_2_0_5 0
y_2_1_0 0
y_2_1_1 0
y_2_1_2 1
y_2_1_3 0
y_2_1_4 0
y_2_1_5 0
y_2_2_0 0
y_2_2_1 0
y_2_2_2 0
y_2_2_3 0
y_2_2_4 0
y_2_2_5 0
y_3_0_0 0
y_3_0_1 0
y_3_0_2 0
y_3_0_3 2.0816681711721685e-17
y_3_0_4 0
y_3_0_5 1.7069679003611782e-15
y_3_1_0 1.0000000000000107e+00
y_3_1_1 1
y_3_1_2 0
y_3_1_3 1.0000000000000009e+00
y_3_1_4 -3.3167912860676552e-15
y_3_1_5 1.6341095143701523e-15
y_3_2_0 0
y_3_2_1 0
y_3_2_2 9.9999999999999067e-01
y_3_2_3 0
y_3_2_4 0
y_3_2_5 0
y_4_0_0 0
y_4_0_1 0
y_4_0_2 0
y_4_0_3 0
y_4_0_4 0
y_4_0_5 -8.3266726846886741e-17
y_4_1_0 1
y_4_1_1 1
y_4_1_2 0
y_4_1_3 1
y_4_1_4 0
y_4_1_5 0
y_4_2_0 0
y_4_2_1 0
y_4_2_2 1
y_4_2_3 0
y_4_2_4 0
y_4_2_5 8.6736173798840355e-17
y_5_0_0 1
y_5_0_1 1
y_5_0_2 0
y_5_0_3 3.3445468616832841e-15
y_5_0_4 1
y_5_0_5 1.6930901125533637e-15
y_5_1_0 0
y_5_1_1 0
y_5_1_2 9.9999999999999734e-01
y_5_1_3 0
y_5_1_4 -3.3306690738754696e-15
y_5_1_5 0
y_5_2_0 0
y_5_2_1 0
y_5_2_2 0
y_5_2_3 0
y_5_2_4 0
y_5_2_5 1.6306400674181987e-15
x_0_1_0_0 0
x_0_1_0_1 0
x_0_1_0_2 2
x_0_1_0_3 9.9999999999999989e-01
x_0_1_0_4 2.2759572004815709e-14
x_0_1_0_5 -2.2759572004815709e-14
x_0_1_1_0 0
x_0_1_1_1 0
x_0_1_1_2 0
x_0_1_1_3 0
x_0_1_1_4 0
x_0_1_1_5 0
x_0_1_2_0 0
x_0_1_2_1 0
x_0_1_2_2 0
x_0_1_2_3 0
x_0_1_2_4 0
x_0_1_2_5 0
x_0_2_0_0 1.0000000000000033e+00
x_0_2_0_1 1
x_0_2_0_2 0
x_0_2_0_3 9.9999999999999667e-01
x_0_2_0_4 0
x_0_2_0_5 0
x_0_2_1_0 0
x_0_2_1_1 0
x_0_2_1_2 1.0000000000000027e+00
x_0_2_1_3 0
x_0_2_1_4 0
x_0_2_1_5 0
x_0_2_2_0 0
x_0_2_2_1 0
x_0_2_2_2 0
x_0_2_2_3 0
x_0_2_2_4 0
x_0_2_2_5 0
x_0_3_0_0 0
x_0_3_0_1 0
x_0_3_0_2 0
x_0_3_0_3 4.1633363423443370e-17
x_0_3_0_4 -3.3029134982598407e-15
x_0_3_0_5 3.4139358007223564e-15
x_0_3_1_0 1.0000000000000107e+00
x_0_3_1_1 1.0000000000000109e+00
x_0_3_1_2 0
x_0_3_1_3 1.0000000000000009e+00
x_0_3_1_4 0
x_0_3_1_5 3.2682190287403046e-15
x_0_3_2_0 0
x_0_3_2_1 0
x_0_3_2_2 9.9999999999999067e-01
x_0_3_2_3 0
x_0_3_2_4 0
x_0_3_2_5 3.0947466811426239e-15
x_0_4_0_0 0
x_0_4_0_1 0
x_0_4_0_2 0
x_0_4_0_3 0
x_0_4_0_4 0
x_0_4_0_5 -1.6653345369377348e-16
x_0_4_1_0 9.9999999999998934e-01
x_0_4_1_1 9.9999999999998912e-01
x_0_4_1_2 0
x_0_4_1_3 9.9999999999999889e-01
x_0_4_1_4 0
x_0_4_1_5 0
x_0_4_2_0 0
x_0_4_2_1 0
x_0_4_2_2 1.0000000000000091e+00
x_0_4_2_3 0
x_0_4_2_4 0
x_0_4_2_5 1.6306400674181987e-15
x_0_5_0_0 0.999999999999998
x_0_5_0_1 1
x_0_5_0_2 0
x_0_5_0_3 3.3445468616832841e-15
x_0_5_0_4 1.9999999999999738e+00
x_0_5_0_5 2.6090241078691179e-14
x_0_5_1_0 0
x_0_5_1_1 0
x_0_5_1_2 9.9999999999999734e-01
x_0_5_1_3 0
x_0_5_1_4 0
x_0_5_1_5 0
x_0_5_2_0 0
x_0_5_2_1 0
x_0_5_2_2 0
x_0_5_2_3 0
x_0_5_2_4 0
x_0_5_2_5 1.6306400674181987e-15
x_1_2_0_0 0
x_1_2_0_1 0
x_1_2_0_2 0
x_1_2_0_3 9.9999999999999989e-01
x_1_2_0_4 0
x_1_2_0_5 0
x_1_2_1_0 0
x_1_2_1_1 0
x_1_2_1_2 0
x_1_2_1_3 0
x_1_2_1_4 0
x_1_2_1_5 0
x_1_2_2_0 0
x_1_2_2_1 0
x_1_2_2_2 0
x_1_2_2_3 0
x_1_2_2_4 0
x_1_2_2_5 0
x_1_3_0_0 0
x_1_3_0_1 0
x_1_3_0_2 0
x_1_3_0_3 0
x_1_3_0_4 0
x_1_3_0_5 0
x_1_3_1_0 0
x_1_3_1_1 0
x_1_3_1_2 0
x_1_3_1_3 0
x_1_3_1_4 0
x_1_3_1_5 0
x_1_3_2_0 0
x_1_3_2_1 0
x_1_3_2_2 0
x_1_3_2_3 0
x_1_3_2_4 0
x_1_3_2_5 0
x_1_4_0_0 0
x_1_4_0_1 0
x_1_4_0_2 0
x_1_4_0_3 0
x_1_4_0_4 0
x_1_4_0_5 0
x_1_4_1_0 0
x_1_4_1_1 0
x_1_4_1_2 0
x_1_4_1_3 0
x_1_4_1_4 0
x_1_4_1_5 0
x_1_4_2_0 0
x_1_4_2_1 0
x_1_4_2_2 0
x_1_4_2_3 0
x_1_4_2_4 0
x_1_4_2_5 0
x_1_5_0_0 0
x_1_5_0_1 0
x_1_5_0_2 0
x_1_5_0_3 0
x_1_5_0_4 2.2759572004815709e-14
x_1_5_0_5 -2.2759572004815709e-14
x_1_5_1_0 0
x_1_5_1_1 0
x_1_5_1_2 0
x_1_5_1_3 0
x_1_5_1_4 0
x_1_5_1_5 0
x_1_5_2_0 0
x_1_5_2_1 0
x_1_5_2_2 0
x_1_5_2_3 0
x_1_5_2_4 0
x_1_5_2_5 0
x_2_3_0_0 0
x_2_3_0_1 0
x_2_3_0_2 0
x_2_3_0_3 0
x_2_3_0_4 0
x_2_3_0_5 0
x_2_3_1_0 0
x_2_3_1_1 0
x_2_3_1_2 0
x_2_3_1_3 0
x_2_3_1_4 0
x_2_3_1_5 0
x_2_3_2_0 0
x_2_3_2_1 0
x_2_3_2_2 0
x_2_3_2_3 0
x_2_3_2_4 0
x_2_3_2_5 0
x_2_4_0_0 0
x_2_4_0_1 0
x_2_4_0_2 0
x_2_4_0_3 0
x_2_4_0_4 0
x_2_4_0_5 0
x_2_4_1_0 0
x_2_4_1_1 0
x_2_4_1_2 0
x_2_4_1_3 0
x_2_4_1_4 0
x_2_4_1_5 0
x_2_4_2_0 0
x_2_4_2_1 0
x_2_4_2_2 0
x_2_4_2_3 0
x_2_4_2_4 0
x_2_4_2_5 0
x_2_5_0_0 0.999999999999998
x_2_5_0_1 1
x_2_5_0_2 0
x_2_5_0_3 3.3445468616832841e-15
x_2_5_0_4 0
x_2_5_0_5 0
x_2_5_1_0 0
x_2_5_1_1 0
x_2_5_1_2 9.9999999999999734e-01
x_2_5_1_3 0
x_2_5_1_4 0
x_2_5_1_5 0
x_2_5_2_0 0
x_2_5_2_1 0
x_2_5_2_2 0
x_2_5_2_3 0
x_2_5_2_4 0
x_2_5_2_5 0
x_3_4_0_0 0
x_3_4_0_1 0
x_3_4_0_2 0
x_3_4_0_3 0
x_3_4_0_4 0
x_3_4_0_5 0
x_3_4_1_0 1.0000000000000107e+00
x_3_4_1_1 1.0000000000000109e+00
x_3_4_1_2 0
x_3_4_1_3 1.0000000000000009e+00
x_3_4_1_4 0
x_3_4_1_5 0
x_3_4_2_0 0
x_3_4_2_1 0
x_3_4_2_2 9.9999999999999067e-01
x_3_4_2_3 0
x_3_4_2_4 0
x_3_4_2_5 -3.0947466811426239e-15
x_3_5_0_0 0
x_3_5_0_1 0
x_3_5_0_2 0
x_3_5_0_3 0
x_3_5_0_4 3.3029134982598407e-15
x_3_5_0_5 0
x_3_5_1_0 0
x_3_5_1_1 0
x_3_5_1_2 0
x_3_5_1_3 0
x_3_5_1_4 -6.6613381477509392e-15
x_3_5_1_5 0
x_3_5_2_0 0
x_3_5_2_1 0
x_3_5_2_2 0
x_3_5_2_3 0
x_3_5_2_4 0
x_3_5_2_5 0
x_4_5_0_0 0
x_4_5_0_1 0
x_4_5_0_2 0
x_4_5_0_3 0
x_4_5_0_4 0
x_4_5_0_5 0
x_4_5_1_0 0
x_4_5_1_1 0
x_4_5_1_2 0
x_4_5_1_3 0
x_4_5_1_4 0
x_4_5_1_5 0
x_4_5_2_0 0
x_4_5_2_1 0
x_4_5_2_2 0
x_4_5_2_3 0
x_4_5_2_4 0
x_4_5_2_5 1.6306400674181987e-15
